 2  0  7  8  0  6  0  0  1 
 1  0  9  2  0  7  0  0  5 
 0  5  6  9  1  0  4  0  0 
 9  0  3  0  2  4  0  6  8 
 6  0  5  3  9  1  2  4  7 
 7  0  0  6  8  0  0  3  0 
 3  0  0  4  7  0  8  5  0 
 5  6  8  1  0  9  7  0  0 
 4  7  2  5  6  0  9  1  0 